<instance>
<presentation name="#25_4_6_3_random#" maxConstraintArity="2" maximize="false" format="XCSP 2.1_FRODO"/>

<agents nbAgents ="25">
  <agent name="agent0" />
  <agent name="agent1" />
  <agent name="agent2" />
  <agent name="agent3" />
  <agent name="agent4" />
  <agent name="agent5" />
  <agent name="agent6" />
  <agent name="agent7" />
  <agent name="agent8" />
  <agent name="agent9" />
  <agent name="agent10" />
  <agent name="agent11" />
  <agent name="agent12" />
  <agent name="agent13" />
  <agent name="agent14" />
  <agent name="agent15" />
  <agent name="agent16" />
  <agent name="agent17" />
  <agent name="agent18" />
  <agent name="agent19" />
  <agent name="agent20" />
  <agent name="agent21" />
  <agent name="agent22" />
  <agent name="agent23" />
  <agent name="agent24" />
</agents>

<domains nbDomains="1">
  <domain name="d4">0..3</domain>
</domains>

<variables nbVariables="25">
  <variable name="v0" domain="d4" agent="agent0" />
  <variable name="v1" domain="d4" agent="agent1" />
  <variable name="v2" domain="d4" agent="agent2" />
  <variable name="v3" domain="d4" agent="agent3" />
  <variable name="v4" domain="d4" agent="agent4" />
  <variable name="v5" domain="d4" agent="agent5" />
  <variable name="v6" domain="d4" agent="agent6" />
  <variable name="v7" domain="d4" agent="agent7" />
  <variable name="v8" domain="d4" agent="agent8" />
  <variable name="v9" domain="d4" agent="agent9" />
  <variable name="v10" domain="d4" agent="agent10" />
  <variable name="v11" domain="d4" agent="agent11" />
  <variable name="v12" domain="d4" agent="agent12" />
  <variable name="v13" domain="d4" agent="agent13" />
  <variable name="v14" domain="d4" agent="agent14" />
  <variable name="v15" domain="d4" agent="agent15" />
  <variable name="v16" domain="d4" agent="agent16" />
  <variable name="v17" domain="d4" agent="agent17" />
  <variable name="v18" domain="d4" agent="agent18" />
  <variable name="v19" domain="d4" agent="agent19" />
  <variable name="v20" domain="d4" agent="agent20" />
  <variable name="v21" domain="d4" agent="agent21" />
  <variable name="v22" domain="d4" agent="agent22" />
  <variable name="v23" domain="d4" agent="agent23" />
  <variable name="v24" domain="d4" agent="agent24" />
</variables>

<relations nbRelations="80">
  <relation name="0_2" arity="2" nbTuples="16" semantics="soft" defaultCost="0">
    50 : 3 1 | 39 : 3 0 | 23 : 3 3 | 57 : 3 2 | 73 : 2 0 | 47 : 2 1 | 59 : 2 2 | 26 : 2 3 | 99 : 1 3 | 31 : 1 2 | 81 : 1 1 | 88 : 1 0 | 38 : 0 2 | 89 : 0 3 | 50 : 0 0 | 46 : 0 1 
  </relation>
  <relation name="0_19" arity="2" nbTuples="16" semantics="soft" defaultCost="0">
    96 : 3 1 | 92 : 3 0 | 61 : 3 3 | 19 : 3 2 | 55 : 2 0 | 69 : 2 1 | 20 : 2 2 | 38 : 2 3 | 68 : 1 3 | 61 : 1 2 | 100 : 1 1 | 42 : 1 0 | 38 : 0 2 | 10 : 0 3 | 91 : 0 0 | 38 : 0 1 
  </relation>
  <relation name="0_18" arity="2" nbTuples="16" semantics="soft" defaultCost="0">
    7 : 3 1 | 30 : 3 0 | 80 : 3 3 | 8 : 3 2 | 20 : 2 0 | 14 : 2 1 | 56 : 2 2 | 84 : 2 3 | 40 : 1 3 | 21 : 1 2 | 92 : 1 1 | 28 : 1 0 | 48 : 0 2 | 55 : 0 3 | 87 : 0 0 | 92 : 0 1 
  </relation>
  <relation name="0_15" arity="2" nbTuples="16" semantics="soft" defaultCost="0">
    79 : 3 1 | 23 : 3 0 | 76 : 3 3 | 96 : 3 2 | 35 : 2 0 | 5 : 2 1 | 54 : 2 2 | 46 : 2 3 | 91 : 1 3 | 21 : 1 2 | 95 : 1 1 | 5 : 1 0 | 90 : 0 2 | 97 : 0 3 | 87 : 0 0 | 62 : 0 1 
  </relation>
  <relation name="1_24" arity="2" nbTuples="16" semantics="soft" defaultCost="0">
    15 : 3 1 | 8 : 3 0 | 6 : 3 3 | 49 : 3 2 | 77 : 2 0 | 46 : 2 1 | 53 : 2 2 | 27 : 2 3 | 80 : 1 3 | 44 : 1 2 | 28 : 1 1 | 45 : 1 0 | 60 : 0 2 | 34 : 0 3 | 39 : 0 0 | 56 : 0 1 
  </relation>
  <relation name="1_9" arity="2" nbTuples="16" semantics="soft" defaultCost="0">
    91 : 3 1 | 16 : 3 0 | 40 : 3 3 | 31 : 3 2 | 24 : 2 0 | 80 : 2 1 | 59 : 2 2 | 39 : 2 3 | 66 : 1 3 | 55 : 1 2 | 63 : 1 1 | 65 : 1 0 | 18 : 0 2 | 95 : 0 3 | 70 : 0 0 | 66 : 0 1 
  </relation>
  <relation name="1_20" arity="2" nbTuples="16" semantics="soft" defaultCost="0">
    58 : 3 1 | 24 : 3 0 | 31 : 3 3 | 10 : 3 2 | 63 : 2 0 | 69 : 2 1 | 30 : 2 2 | 85 : 2 3 | 55 : 1 3 | 7 : 1 2 | 37 : 1 1 | 16 : 1 0 | 76 : 0 2 | 64 : 0 3 | 94 : 0 0 | 31 : 0 1 
  </relation>
  <relation name="1_23" arity="2" nbTuples="16" semantics="soft" defaultCost="0">
    57 : 3 1 | 82 : 3 0 | 10 : 3 3 | 71 : 3 2 | 95 : 2 0 | 40 : 2 1 | 75 : 2 2 | 68 : 2 3 | 48 : 1 3 | 30 : 1 2 | 19 : 1 1 | 73 : 1 0 | 12 : 0 2 | 31 : 0 3 | 5 : 0 0 | 11 : 0 1 
  </relation>
  <relation name="2_6" arity="2" nbTuples="16" semantics="soft" defaultCost="0">
    95 : 3 1 | 32 : 3 0 | 79 : 3 3 | 16 : 3 2 | 92 : 2 0 | 46 : 2 1 | 63 : 2 2 | 73 : 2 3 | 28 : 1 3 | 82 : 1 2 | 34 : 1 1 | 55 : 1 0 | 20 : 0 2 | 75 : 0 3 | 90 : 0 0 | 79 : 0 1 
  </relation>
  <relation name="2_7" arity="2" nbTuples="16" semantics="soft" defaultCost="0">
    2 : 3 1 | 100 : 3 0 | 99 : 3 3 | 49 : 3 2 | 16 : 2 0 | 86 : 2 1 | 55 : 2 2 | 87 : 2 3 | 91 : 1 3 | 21 : 1 2 | 7 : 1 1 | 61 : 1 0 | 55 : 0 2 | 48 : 0 3 | 30 : 0 0 | 72 : 0 1 
  </relation>
  <relation name="2_9" arity="2" nbTuples="16" semantics="soft" defaultCost="0">
    15 : 3 1 | 94 : 3 0 | 12 : 3 3 | 53 : 3 2 | 27 : 2 0 | 59 : 2 1 | 16 : 2 2 | 55 : 2 3 | 58 : 1 3 | 57 : 1 2 | 62 : 1 1 | 55 : 1 0 | 73 : 0 2 | 22 : 0 3 | 94 : 0 0 | 40 : 0 1 
  </relation>
  <relation name="2_12" arity="2" nbTuples="16" semantics="soft" defaultCost="0">
    48 : 3 1 | 60 : 3 0 | 99 : 3 3 | 96 : 3 2 | 67 : 2 0 | 10 : 2 1 | 92 : 2 2 | 24 : 2 3 | 28 : 1 3 | 8 : 1 2 | 69 : 1 1 | 63 : 1 0 | 97 : 0 2 | 68 : 0 3 | 80 : 0 0 | 88 : 0 1 
  </relation>
  <relation name="2_16" arity="2" nbTuples="16" semantics="soft" defaultCost="0">
    65 : 3 1 | 41 : 3 0 | 31 : 3 3 | 78 : 3 2 | 16 : 2 0 | 76 : 2 1 | 62 : 2 2 | 9 : 2 3 | 99 : 1 3 | 81 : 1 2 | 93 : 1 1 | 1 : 1 0 | 3 : 0 2 | 94 : 0 3 | 32 : 0 0 | 38 : 0 1 
  </relation>
  <relation name="2_17" arity="2" nbTuples="16" semantics="soft" defaultCost="0">
    86 : 3 1 | 98 : 3 0 | 64 : 3 3 | 60 : 3 2 | 59 : 2 0 | 64 : 2 1 | 48 : 2 2 | 99 : 2 3 | 52 : 1 3 | 94 : 1 2 | 30 : 1 1 | 92 : 1 0 | 53 : 0 2 | 76 : 0 3 | 55 : 0 0 | 27 : 0 1 
  </relation>
  <relation name="2_19" arity="2" nbTuples="16" semantics="soft" defaultCost="0">
    47 : 3 1 | 95 : 3 0 | 74 : 3 3 | 58 : 3 2 | 19 : 2 0 | 15 : 2 1 | 15 : 2 2 | 3 : 2 3 | 97 : 1 3 | 49 : 1 2 | 7 : 1 1 | 39 : 1 0 | 65 : 0 2 | 99 : 0 3 | 97 : 0 0 | 17 : 0 1 
  </relation>
  <relation name="2_23" arity="2" nbTuples="16" semantics="soft" defaultCost="0">
    40 : 3 1 | 88 : 3 0 | 3 : 3 3 | 88 : 3 2 | 40 : 2 0 | 20 : 2 1 | 68 : 2 2 | 63 : 2 3 | 86 : 1 3 | 25 : 1 2 | 6 : 1 1 | 36 : 1 0 | 34 : 0 2 | 42 : 0 3 | 84 : 0 0 | 91 : 0 1 
  </relation>
  <relation name="2_24" arity="2" nbTuples="16" semantics="soft" defaultCost="0">
    79 : 3 1 | 39 : 3 0 | 16 : 3 3 | 9 : 3 2 | 56 : 2 0 | 13 : 2 1 | 10 : 2 2 | 100 : 2 3 | 18 : 1 3 | 29 : 1 2 | 2 : 1 1 | 52 : 1 0 | 26 : 0 2 | 6 : 0 3 | 91 : 0 0 | 65 : 0 1 
  </relation>
  <relation name="3_16" arity="2" nbTuples="16" semantics="soft" defaultCost="0">
    77 : 3 1 | 5 : 3 0 | 19 : 3 3 | 23 : 3 2 | 92 : 2 0 | 73 : 2 1 | 85 : 2 2 | 10 : 2 3 | 67 : 1 3 | 38 : 1 2 | 2 : 1 1 | 59 : 1 0 | 40 : 0 2 | 44 : 0 3 | 69 : 0 0 | 85 : 0 1 
  </relation>
  <relation name="3_12" arity="2" nbTuples="16" semantics="soft" defaultCost="0">
    36 : 3 1 | 2 : 3 0 | 32 : 3 3 | 5 : 3 2 | 73 : 2 0 | 30 : 2 1 | 82 : 2 2 | 27 : 2 3 | 74 : 1 3 | 30 : 1 2 | 71 : 1 1 | 7 : 1 0 | 42 : 0 2 | 26 : 0 3 | 60 : 0 0 | 63 : 0 1 
  </relation>
  <relation name="3_5" arity="2" nbTuples="16" semantics="soft" defaultCost="0">
    77 : 3 1 | 28 : 3 0 | 7 : 3 3 | 96 : 3 2 | 11 : 2 0 | 89 : 2 1 | 20 : 2 2 | 17 : 2 3 | 42 : 1 3 | 46 : 1 2 | 66 : 1 1 | 42 : 1 0 | 61 : 0 2 | 95 : 0 3 | 77 : 0 0 | 23 : 0 1 
  </relation>
  <relation name="3_6" arity="2" nbTuples="16" semantics="soft" defaultCost="0">
    79 : 3 1 | 67 : 3 0 | 7 : 3 3 | 70 : 3 2 | 44 : 2 0 | 82 : 2 1 | 63 : 2 2 | 52 : 2 3 | 74 : 1 3 | 32 : 1 2 | 36 : 1 1 | 72 : 1 0 | 88 : 0 2 | 59 : 0 3 | 59 : 0 0 | 42 : 0 1 
  </relation>
  <relation name="4_19" arity="2" nbTuples="16" semantics="soft" defaultCost="0">
    82 : 3 1 | 54 : 3 0 | 61 : 3 3 | 52 : 3 2 | 15 : 2 0 | 90 : 2 1 | 59 : 2 2 | 10 : 2 3 | 61 : 1 3 | 64 : 1 2 | 74 : 1 1 | 11 : 1 0 | 41 : 0 2 | 96 : 0 3 | 7 : 0 0 | 45 : 0 1 
  </relation>
  <relation name="4_11" arity="2" nbTuples="16" semantics="soft" defaultCost="0">
    36 : 3 1 | 33 : 3 0 | 37 : 3 3 | 79 : 3 2 | 84 : 2 0 | 15 : 2 1 | 47 : 2 2 | 61 : 2 3 | 72 : 1 3 | 9 : 1 2 | 94 : 1 1 | 52 : 1 0 | 49 : 0 2 | 68 : 0 3 | 43 : 0 0 | 100 : 0 1 
  </relation>
  <relation name="4_7" arity="2" nbTuples="16" semantics="soft" defaultCost="0">
    68 : 3 1 | 52 : 3 0 | 43 : 3 3 | 87 : 3 2 | 45 : 2 0 | 54 : 2 1 | 43 : 2 2 | 89 : 2 3 | 44 : 1 3 | 26 : 1 2 | 35 : 1 1 | 21 : 1 0 | 88 : 0 2 | 86 : 0 3 | 34 : 0 0 | 76 : 0 1 
  </relation>
  <relation name="5_19" arity="2" nbTuples="16" semantics="soft" defaultCost="0">
    8 : 3 1 | 1 : 3 0 | 45 : 3 3 | 96 : 3 2 | 56 : 2 0 | 40 : 2 1 | 81 : 2 2 | 85 : 2 3 | 57 : 1 3 | 56 : 1 2 | 85 : 1 1 | 67 : 1 0 | 32 : 0 2 | 72 : 0 3 | 35 : 0 0 | 48 : 0 1 
  </relation>
  <relation name="5_9" arity="2" nbTuples="16" semantics="soft" defaultCost="0">
    85 : 3 1 | 68 : 3 0 | 65 : 3 3 | 70 : 3 2 | 28 : 2 0 | 21 : 2 1 | 11 : 2 2 | 35 : 2 3 | 87 : 1 3 | 22 : 1 2 | 71 : 1 1 | 30 : 1 0 | 21 : 0 2 | 79 : 0 3 | 5 : 0 0 | 55 : 0 1 
  </relation>
  <relation name="5_18" arity="2" nbTuples="16" semantics="soft" defaultCost="0">
    57 : 3 1 | 32 : 3 0 | 94 : 3 3 | 64 : 3 2 | 99 : 2 0 | 25 : 2 1 | 85 : 2 2 | 46 : 2 3 | 53 : 1 3 | 80 : 1 2 | 26 : 1 1 | 24 : 1 0 | 97 : 0 2 | 93 : 0 3 | 79 : 0 0 | 91 : 0 1 
  </relation>
  <relation name="5_12" arity="2" nbTuples="16" semantics="soft" defaultCost="0">
    28 : 3 1 | 18 : 3 0 | 39 : 3 3 | 36 : 3 2 | 61 : 2 0 | 97 : 2 1 | 80 : 2 2 | 69 : 2 3 | 57 : 1 3 | 88 : 1 2 | 91 : 1 1 | 64 : 1 0 | 94 : 0 2 | 9 : 0 3 | 9 : 0 0 | 50 : 0 1 
  </relation>
  <relation name="6_19" arity="2" nbTuples="16" semantics="soft" defaultCost="0">
    2 : 3 1 | 58 : 3 0 | 15 : 3 3 | 83 : 3 2 | 10 : 2 0 | 36 : 2 1 | 39 : 2 2 | 55 : 2 3 | 95 : 1 3 | 41 : 1 2 | 5 : 1 1 | 43 : 1 0 | 66 : 0 2 | 26 : 0 3 | 46 : 0 0 | 93 : 0 1 
  </relation>
  <relation name="6_12" arity="2" nbTuples="16" semantics="soft" defaultCost="0">
    16 : 3 1 | 88 : 3 0 | 43 : 3 3 | 43 : 3 2 | 68 : 2 0 | 20 : 2 1 | 47 : 2 2 | 38 : 2 3 | 44 : 1 3 | 35 : 1 2 | 38 : 1 1 | 35 : 1 0 | 7 : 0 2 | 55 : 0 3 | 55 : 0 0 | 57 : 0 1 
  </relation>
  <relation name="6_13" arity="2" nbTuples="16" semantics="soft" defaultCost="0">
    65 : 3 1 | 80 : 3 0 | 64 : 3 3 | 74 : 3 2 | 82 : 2 0 | 55 : 2 1 | 19 : 2 2 | 47 : 2 3 | 51 : 1 3 | 100 : 1 2 | 64 : 1 1 | 17 : 1 0 | 3 : 0 2 | 28 : 0 3 | 56 : 0 0 | 42 : 0 1 
  </relation>
  <relation name="7_10" arity="2" nbTuples="16" semantics="soft" defaultCost="0">
    10 : 3 1 | 20 : 3 0 | 80 : 3 3 | 38 : 3 2 | 7 : 2 0 | 82 : 2 1 | 56 : 2 2 | 76 : 2 3 | 66 : 1 3 | 79 : 1 2 | 14 : 1 1 | 86 : 1 0 | 48 : 0 2 | 33 : 0 3 | 66 : 0 0 | 85 : 0 1 
  </relation>
  <relation name="7_11" arity="2" nbTuples="16" semantics="soft" defaultCost="0">
    74 : 3 1 | 20 : 3 0 | 72 : 3 3 | 72 : 3 2 | 50 : 2 0 | 8 : 2 1 | 23 : 2 2 | 9 : 2 3 | 54 : 1 3 | 55 : 1 2 | 55 : 1 1 | 80 : 1 0 | 37 : 0 2 | 21 : 0 3 | 68 : 0 0 | 24 : 0 1 
  </relation>
  <relation name="7_14" arity="2" nbTuples="16" semantics="soft" defaultCost="0">
    68 : 3 1 | 86 : 3 0 | 86 : 3 3 | 55 : 3 2 | 49 : 2 0 | 91 : 2 1 | 18 : 2 2 | 78 : 2 3 | 75 : 1 3 | 46 : 1 2 | 37 : 1 1 | 27 : 1 0 | 28 : 0 2 | 74 : 0 3 | 27 : 0 0 | 4 : 0 1 
  </relation>
  <relation name="7_18" arity="2" nbTuples="16" semantics="soft" defaultCost="0">
    82 : 3 1 | 12 : 3 0 | 23 : 3 3 | 9 : 3 2 | 81 : 2 0 | 78 : 2 1 | 55 : 2 2 | 24 : 2 3 | 83 : 1 3 | 43 : 1 2 | 20 : 1 1 | 60 : 1 0 | 83 : 0 2 | 39 : 0 3 | 28 : 0 0 | 41 : 0 1 
  </relation>
  <relation name="7_19" arity="2" nbTuples="16" semantics="soft" defaultCost="0">
    64 : 3 1 | 43 : 3 0 | 42 : 3 3 | 60 : 3 2 | 51 : 2 0 | 94 : 2 1 | 71 : 2 2 | 41 : 2 3 | 77 : 1 3 | 97 : 1 2 | 7 : 1 1 | 56 : 1 0 | 96 : 0 2 | 74 : 0 3 | 60 : 0 0 | 78 : 0 1 
  </relation>
  <relation name="7_20" arity="2" nbTuples="16" semantics="soft" defaultCost="0">
    72 : 3 1 | 68 : 3 0 | 66 : 3 3 | 78 : 3 2 | 10 : 2 0 | 46 : 2 1 | 59 : 2 2 | 83 : 2 3 | 20 : 1 3 | 55 : 1 2 | 35 : 1 1 | 26 : 1 0 | 76 : 0 2 | 100 : 0 3 | 15 : 0 0 | 73 : 0 1 
  </relation>
  <relation name="8_10" arity="2" nbTuples="16" semantics="soft" defaultCost="0">
    78 : 3 1 | 69 : 3 0 | 74 : 3 3 | 100 : 3 2 | 59 : 2 0 | 59 : 2 1 | 38 : 2 2 | 90 : 2 3 | 21 : 1 3 | 90 : 1 2 | 92 : 1 1 | 12 : 1 0 | 19 : 0 2 | 39 : 0 3 | 38 : 0 0 | 26 : 0 1 
  </relation>
  <relation name="8_11" arity="2" nbTuples="16" semantics="soft" defaultCost="0">
    51 : 3 1 | 48 : 3 0 | 73 : 3 3 | 94 : 3 2 | 96 : 2 0 | 43 : 2 1 | 35 : 2 2 | 6 : 2 3 | 50 : 1 3 | 65 : 1 2 | 90 : 1 1 | 36 : 1 0 | 59 : 0 2 | 84 : 0 3 | 28 : 0 0 | 57 : 0 1 
  </relation>
  <relation name="8_13" arity="2" nbTuples="16" semantics="soft" defaultCost="0">
    45 : 3 1 | 47 : 3 0 | 7 : 3 3 | 12 : 3 2 | 15 : 2 0 | 7 : 2 1 | 47 : 2 2 | 54 : 2 3 | 71 : 1 3 | 91 : 1 2 | 14 : 1 1 | 87 : 1 0 | 28 : 0 2 | 89 : 0 3 | 20 : 0 0 | 24 : 0 1 
  </relation>
  <relation name="8_14" arity="2" nbTuples="16" semantics="soft" defaultCost="0">
    96 : 3 1 | 69 : 3 0 | 44 : 3 3 | 61 : 3 2 | 89 : 2 0 | 8 : 2 1 | 68 : 2 2 | 95 : 2 3 | 48 : 1 3 | 9 : 1 2 | 19 : 1 1 | 99 : 1 0 | 95 : 0 2 | 69 : 0 3 | 28 : 0 0 | 32 : 0 1 
  </relation>
  <relation name="8_21" arity="2" nbTuples="16" semantics="soft" defaultCost="0">
    4 : 3 1 | 68 : 3 0 | 60 : 3 3 | 10 : 3 2 | 50 : 2 0 | 26 : 2 1 | 44 : 2 2 | 9 : 2 3 | 69 : 1 3 | 56 : 1 2 | 99 : 1 1 | 66 : 1 0 | 26 : 0 2 | 73 : 0 3 | 28 : 0 0 | 44 : 0 1 
  </relation>
  <relation name="8_22" arity="2" nbTuples="16" semantics="soft" defaultCost="0">
    60 : 3 1 | 1 : 3 0 | 82 : 3 3 | 98 : 3 2 | 52 : 2 0 | 76 : 2 1 | 20 : 2 2 | 8 : 2 3 | 5 : 1 3 | 59 : 1 2 | 61 : 1 1 | 56 : 1 0 | 86 : 0 2 | 72 : 0 3 | 58 : 0 0 | 2 : 0 1 
  </relation>
  <relation name="9_20" arity="2" nbTuples="16" semantics="soft" defaultCost="0">
    22 : 3 1 | 61 : 3 0 | 82 : 3 3 | 4 : 3 2 | 100 : 2 0 | 49 : 2 1 | 31 : 2 2 | 35 : 2 3 | 15 : 1 3 | 90 : 1 2 | 70 : 1 1 | 12 : 1 0 | 62 : 0 2 | 70 : 0 3 | 6 : 0 0 | 53 : 0 1 
  </relation>
  <relation name="9_14" arity="2" nbTuples="16" semantics="soft" defaultCost="0">
    94 : 3 1 | 99 : 3 0 | 25 : 3 3 | 72 : 3 2 | 90 : 2 0 | 76 : 2 1 | 6 : 2 2 | 29 : 2 3 | 58 : 1 3 | 10 : 1 2 | 40 : 1 1 | 49 : 1 0 | 26 : 0 2 | 75 : 0 3 | 60 : 0 0 | 81 : 0 1 
  </relation>
  <relation name="10_15" arity="2" nbTuples="16" semantics="soft" defaultCost="0">
    80 : 3 1 | 45 : 3 0 | 32 : 3 3 | 7 : 3 2 | 36 : 2 0 | 56 : 2 1 | 38 : 2 2 | 52 : 2 3 | 40 : 1 3 | 98 : 1 2 | 53 : 1 1 | 4 : 1 0 | 74 : 0 2 | 67 : 0 3 | 85 : 0 0 | 30 : 0 1 
  </relation>
  <relation name="10_19" arity="2" nbTuples="16" semantics="soft" defaultCost="0">
    53 : 3 1 | 44 : 3 0 | 53 : 3 3 | 38 : 3 2 | 56 : 2 0 | 92 : 2 1 | 15 : 2 2 | 54 : 2 3 | 56 : 1 3 | 15 : 1 2 | 8 : 1 1 | 8 : 1 0 | 73 : 0 2 | 69 : 0 3 | 22 : 0 0 | 26 : 0 1 
  </relation>
  <relation name="10_21" arity="2" nbTuples="16" semantics="soft" defaultCost="0">
    40 : 3 1 | 26 : 3 0 | 68 : 3 3 | 30 : 3 2 | 28 : 2 0 | 85 : 2 1 | 43 : 2 2 | 30 : 2 3 | 5 : 1 3 | 93 : 1 2 | 50 : 1 1 | 70 : 1 0 | 52 : 0 2 | 42 : 0 3 | 7 : 0 0 | 58 : 0 1 
  </relation>
  <relation name="10_23" arity="2" nbTuples="16" semantics="soft" defaultCost="0">
    68 : 3 1 | 77 : 3 0 | 63 : 3 3 | 23 : 3 2 | 54 : 2 0 | 66 : 2 1 | 74 : 2 2 | 17 : 2 3 | 98 : 1 3 | 61 : 1 2 | 80 : 1 1 | 38 : 1 0 | 39 : 0 2 | 22 : 0 3 | 7 : 0 0 | 7 : 0 1 
  </relation>
  <relation name="11_17" arity="2" nbTuples="16" semantics="soft" defaultCost="0">
    39 : 3 1 | 84 : 3 0 | 86 : 3 3 | 63 : 3 2 | 89 : 2 0 | 60 : 2 1 | 86 : 2 2 | 75 : 2 3 | 77 : 1 3 | 21 : 1 2 | 22 : 1 1 | 99 : 1 0 | 19 : 0 2 | 13 : 0 3 | 100 : 0 0 | 32 : 0 1 
  </relation>
  <relation name="11_21" arity="2" nbTuples="16" semantics="soft" defaultCost="0">
    39 : 3 1 | 70 : 3 0 | 41 : 3 3 | 59 : 3 2 | 50 : 2 0 | 82 : 2 1 | 20 : 2 2 | 80 : 2 3 | 44 : 1 3 | 55 : 1 2 | 52 : 1 1 | 95 : 1 0 | 91 : 0 2 | 20 : 0 3 | 66 : 0 0 | 29 : 0 1 
  </relation>
  <relation name="11_23" arity="2" nbTuples="16" semantics="soft" defaultCost="0">
    1 : 3 1 | 97 : 3 0 | 80 : 3 3 | 56 : 3 2 | 55 : 2 0 | 33 : 2 1 | 20 : 2 2 | 6 : 2 3 | 15 : 1 3 | 19 : 1 2 | 72 : 1 1 | 7 : 1 0 | 53 : 0 2 | 35 : 0 3 | 1 : 0 0 | 9 : 0 1 
  </relation>
  <relation name="12_15" arity="2" nbTuples="16" semantics="soft" defaultCost="0">
    91 : 3 1 | 8 : 3 0 | 26 : 3 3 | 51 : 3 2 | 85 : 2 0 | 38 : 2 1 | 20 : 2 2 | 95 : 2 3 | 19 : 1 3 | 79 : 1 2 | 99 : 1 1 | 57 : 1 0 | 47 : 0 2 | 81 : 0 3 | 89 : 0 0 | 15 : 0 1 
  </relation>
  <relation name="12_19" arity="2" nbTuples="16" semantics="soft" defaultCost="0">
    70 : 3 1 | 24 : 3 0 | 58 : 3 3 | 26 : 3 2 | 25 : 2 0 | 23 : 2 1 | 68 : 2 2 | 97 : 2 3 | 80 : 1 3 | 7 : 1 2 | 31 : 1 1 | 27 : 1 0 | 66 : 0 2 | 52 : 0 3 | 3 : 0 0 | 39 : 0 1 
  </relation>
  <relation name="12_24" arity="2" nbTuples="16" semantics="soft" defaultCost="0">
    50 : 3 1 | 88 : 3 0 | 24 : 3 3 | 50 : 3 2 | 20 : 2 0 | 56 : 2 1 | 98 : 2 2 | 6 : 2 3 | 28 : 1 3 | 53 : 1 2 | 98 : 1 1 | 86 : 1 0 | 17 : 0 2 | 64 : 0 3 | 66 : 0 0 | 99 : 0 1 
  </relation>
  <relation name="13_15" arity="2" nbTuples="16" semantics="soft" defaultCost="0">
    67 : 3 1 | 89 : 3 0 | 62 : 3 3 | 41 : 3 2 | 37 : 2 0 | 71 : 2 1 | 10 : 2 2 | 74 : 2 3 | 35 : 1 3 | 94 : 1 2 | 50 : 1 1 | 11 : 1 0 | 64 : 0 2 | 94 : 0 3 | 13 : 0 0 | 74 : 0 1 
  </relation>
  <relation name="13_18" arity="2" nbTuples="16" semantics="soft" defaultCost="0">
    48 : 3 1 | 67 : 3 0 | 51 : 3 3 | 65 : 3 2 | 99 : 2 0 | 46 : 2 1 | 10 : 2 2 | 22 : 2 3 | 14 : 1 3 | 50 : 1 2 | 58 : 1 1 | 50 : 1 0 | 11 : 0 2 | 6 : 0 3 | 65 : 0 0 | 71 : 0 1 
  </relation>
  <relation name="13_22" arity="2" nbTuples="16" semantics="soft" defaultCost="0">
    42 : 3 1 | 77 : 3 0 | 75 : 3 3 | 19 : 3 2 | 71 : 2 0 | 3 : 2 1 | 19 : 2 2 | 43 : 2 3 | 4 : 1 3 | 38 : 1 2 | 66 : 1 1 | 10 : 1 0 | 78 : 0 2 | 31 : 0 3 | 24 : 0 0 | 15 : 0 1 
  </relation>
  <relation name="13_24" arity="2" nbTuples="16" semantics="soft" defaultCost="0">
    37 : 3 1 | 42 : 3 0 | 72 : 3 3 | 70 : 3 2 | 30 : 2 0 | 55 : 2 1 | 72 : 2 2 | 85 : 2 3 | 86 : 1 3 | 50 : 1 2 | 27 : 1 1 | 60 : 1 0 | 82 : 0 2 | 61 : 0 3 | 70 : 0 0 | 33 : 0 1 
  </relation>
  <relation name="14_18" arity="2" nbTuples="16" semantics="soft" defaultCost="0">
    98 : 3 1 | 36 : 3 0 | 74 : 3 3 | 2 : 3 2 | 69 : 2 0 | 26 : 2 1 | 45 : 2 2 | 96 : 2 3 | 57 : 1 3 | 79 : 1 2 | 14 : 1 1 | 68 : 1 0 | 48 : 0 2 | 42 : 0 3 | 84 : 0 0 | 59 : 0 1 
  </relation>
  <relation name="14_22" arity="2" nbTuples="16" semantics="soft" defaultCost="0">
    31 : 3 1 | 87 : 3 0 | 62 : 3 3 | 43 : 3 2 | 88 : 2 0 | 28 : 2 1 | 58 : 2 2 | 49 : 2 3 | 39 : 1 3 | 5 : 1 2 | 26 : 1 1 | 90 : 1 0 | 55 : 0 2 | 90 : 0 3 | 38 : 0 0 | 1 : 0 1 
  </relation>
  <relation name="14_23" arity="2" nbTuples="16" semantics="soft" defaultCost="0">
    56 : 3 1 | 1 : 3 0 | 3 : 3 3 | 24 : 3 2 | 81 : 2 0 | 29 : 2 1 | 26 : 2 2 | 96 : 2 3 | 73 : 1 3 | 60 : 1 2 | 43 : 1 1 | 23 : 1 0 | 45 : 0 2 | 49 : 0 3 | 56 : 0 0 | 38 : 0 1 
  </relation>
  <relation name="15_17" arity="2" nbTuples="16" semantics="soft" defaultCost="0">
    15 : 3 1 | 59 : 3 0 | 19 : 3 3 | 47 : 3 2 | 8 : 2 0 | 95 : 2 1 | 61 : 2 2 | 48 : 2 3 | 49 : 1 3 | 26 : 1 2 | 72 : 1 1 | 10 : 1 0 | 99 : 0 2 | 26 : 0 3 | 1 : 0 0 | 8 : 0 1 
  </relation>
  <relation name="15_18" arity="2" nbTuples="16" semantics="soft" defaultCost="0">
    80 : 3 1 | 57 : 3 0 | 99 : 3 3 | 22 : 3 2 | 22 : 2 0 | 37 : 2 1 | 79 : 2 2 | 34 : 2 3 | 74 : 1 3 | 17 : 1 2 | 3 : 1 1 | 18 : 1 0 | 12 : 0 2 | 74 : 0 3 | 33 : 0 0 | 90 : 0 1 
  </relation>
  <relation name="15_23" arity="2" nbTuples="16" semantics="soft" defaultCost="0">
    44 : 3 1 | 1 : 3 0 | 77 : 3 3 | 6 : 3 2 | 16 : 2 0 | 97 : 2 1 | 43 : 2 2 | 59 : 2 3 | 48 : 1 3 | 67 : 1 2 | 55 : 1 1 | 27 : 1 0 | 38 : 0 2 | 31 : 0 3 | 97 : 0 0 | 63 : 0 1 
  </relation>
  <relation name="16_17" arity="2" nbTuples="16" semantics="soft" defaultCost="0">
    37 : 3 1 | 32 : 3 0 | 99 : 3 3 | 23 : 3 2 | 7 : 2 0 | 27 : 2 1 | 93 : 2 2 | 6 : 2 3 | 71 : 1 3 | 58 : 1 2 | 98 : 1 1 | 32 : 1 0 | 80 : 0 2 | 21 : 0 3 | 60 : 0 0 | 81 : 0 1 
  </relation>
  <relation name="16_18" arity="2" nbTuples="16" semantics="soft" defaultCost="0">
    3 : 3 1 | 97 : 3 0 | 67 : 3 3 | 86 : 3 2 | 14 : 2 0 | 61 : 2 1 | 33 : 2 2 | 37 : 2 3 | 48 : 1 3 | 86 : 1 2 | 56 : 1 1 | 67 : 1 0 | 84 : 0 2 | 76 : 0 3 | 2 : 0 0 | 25 : 0 1 
  </relation>
  <relation name="16_19" arity="2" nbTuples="16" semantics="soft" defaultCost="0">
    32 : 3 1 | 43 : 3 0 | 88 : 3 3 | 70 : 3 2 | 66 : 2 0 | 12 : 2 1 | 62 : 2 2 | 36 : 2 3 | 88 : 1 3 | 8 : 1 2 | 38 : 1 1 | 55 : 1 0 | 64 : 0 2 | 98 : 0 3 | 90 : 0 0 | 6 : 0 1 
  </relation>
  <relation name="16_22" arity="2" nbTuples="16" semantics="soft" defaultCost="0">
    77 : 3 1 | 38 : 3 0 | 55 : 3 3 | 58 : 3 2 | 1 : 2 0 | 95 : 2 1 | 91 : 2 2 | 44 : 2 3 | 18 : 1 3 | 39 : 1 2 | 47 : 1 1 | 46 : 1 0 | 29 : 0 2 | 52 : 0 3 | 99 : 0 0 | 31 : 0 1 
  </relation>
  <relation name="16_24" arity="2" nbTuples="16" semantics="soft" defaultCost="0">
    80 : 3 1 | 5 : 3 0 | 10 : 3 3 | 87 : 3 2 | 20 : 2 0 | 9 : 2 1 | 4 : 2 2 | 52 : 2 3 | 33 : 1 3 | 62 : 1 2 | 86 : 1 1 | 49 : 1 0 | 41 : 0 2 | 82 : 0 3 | 36 : 0 0 | 25 : 0 1 
  </relation>
  <relation name="17_18" arity="2" nbTuples="16" semantics="soft" defaultCost="0">
    45 : 3 1 | 99 : 3 0 | 72 : 3 3 | 66 : 3 2 | 19 : 2 0 | 95 : 2 1 | 38 : 2 2 | 29 : 2 3 | 5 : 1 3 | 11 : 1 2 | 50 : 1 1 | 95 : 1 0 | 2 : 0 2 | 8 : 0 3 | 86 : 0 0 | 24 : 0 1 
  </relation>
  <relation name="17_19" arity="2" nbTuples="16" semantics="soft" defaultCost="0">
    89 : 3 1 | 52 : 3 0 | 72 : 3 3 | 27 : 3 2 | 97 : 2 0 | 79 : 2 1 | 57 : 2 2 | 17 : 2 3 | 34 : 1 3 | 97 : 1 2 | 74 : 1 1 | 72 : 1 0 | 62 : 0 2 | 14 : 0 3 | 30 : 0 0 | 83 : 0 1 
  </relation>
  <relation name="17_21" arity="2" nbTuples="16" semantics="soft" defaultCost="0">
    97 : 3 1 | 59 : 3 0 | 98 : 3 3 | 26 : 3 2 | 55 : 2 0 | 54 : 2 1 | 83 : 2 2 | 92 : 2 3 | 68 : 1 3 | 50 : 1 2 | 16 : 1 1 | 40 : 1 0 | 85 : 0 2 | 80 : 0 3 | 49 : 0 0 | 73 : 0 1 
  </relation>
  <relation name="17_23" arity="2" nbTuples="16" semantics="soft" defaultCost="0">
    35 : 3 1 | 98 : 3 0 | 23 : 3 3 | 52 : 3 2 | 19 : 2 0 | 37 : 2 1 | 28 : 2 2 | 50 : 2 3 | 78 : 1 3 | 85 : 1 2 | 90 : 1 1 | 62 : 1 0 | 91 : 0 2 | 12 : 0 3 | 84 : 0 0 | 23 : 0 1 
  </relation>
  <relation name="18_19" arity="2" nbTuples="16" semantics="soft" defaultCost="0">
    29 : 3 1 | 15 : 3 0 | 8 : 3 3 | 16 : 3 2 | 92 : 2 0 | 85 : 2 1 | 72 : 2 2 | 88 : 2 3 | 30 : 1 3 | 22 : 1 2 | 63 : 1 1 | 61 : 1 0 | 64 : 0 2 | 1 : 0 3 | 13 : 0 0 | 69 : 0 1 
  </relation>
  <relation name="18_24" arity="2" nbTuples="16" semantics="soft" defaultCost="0">
    59 : 3 1 | 47 : 3 0 | 71 : 3 3 | 25 : 3 2 | 17 : 2 0 | 59 : 2 1 | 52 : 2 2 | 74 : 2 3 | 95 : 1 3 | 62 : 1 2 | 57 : 1 1 | 91 : 1 0 | 66 : 0 2 | 24 : 0 3 | 45 : 0 0 | 32 : 0 1 
  </relation>
  <relation name="19_20" arity="2" nbTuples="16" semantics="soft" defaultCost="0">
    64 : 3 1 | 24 : 3 0 | 57 : 3 3 | 80 : 3 2 | 4 : 2 0 | 98 : 2 1 | 93 : 2 2 | 45 : 2 3 | 60 : 1 3 | 13 : 1 2 | 49 : 1 1 | 36 : 1 0 | 6 : 0 2 | 64 : 0 3 | 11 : 0 0 | 10 : 0 1 
  </relation>
  <relation name="19_23" arity="2" nbTuples="16" semantics="soft" defaultCost="0">
    3 : 3 1 | 85 : 3 0 | 47 : 3 3 | 94 : 3 2 | 34 : 2 0 | 36 : 2 1 | 18 : 2 2 | 94 : 2 3 | 30 : 1 3 | 42 : 1 2 | 7 : 1 1 | 3 : 1 0 | 96 : 0 2 | 44 : 0 3 | 11 : 0 0 | 48 : 0 1 
  </relation>
  <relation name="20_24" arity="2" nbTuples="16" semantics="soft" defaultCost="0">
    90 : 3 1 | 74 : 3 0 | 9 : 3 3 | 60 : 3 2 | 38 : 2 0 | 47 : 2 1 | 60 : 2 2 | 62 : 2 3 | 27 : 1 3 | 86 : 1 2 | 41 : 1 1 | 6 : 1 0 | 95 : 0 2 | 23 : 0 3 | 93 : 0 0 | 36 : 0 1 
  </relation>
  <relation name="21_23" arity="2" nbTuples="16" semantics="soft" defaultCost="0">
    58 : 3 1 | 46 : 3 0 | 46 : 3 3 | 78 : 3 2 | 100 : 2 0 | 91 : 2 1 | 96 : 2 2 | 42 : 2 3 | 71 : 1 3 | 2 : 1 2 | 96 : 1 1 | 68 : 1 0 | 66 : 0 2 | 99 : 0 3 | 20 : 0 0 | 61 : 0 1 
  </relation>
</relations>

<constraints nbConstraints="80">
  <constraint name="0_2" arity="2" scope="v0 v2" reference="0_2" />
  <constraint name="0_19" arity="2" scope="v0 v19" reference="0_19" />
  <constraint name="0_18" arity="2" scope="v0 v18" reference="0_18" />
  <constraint name="0_15" arity="2" scope="v0 v15" reference="0_15" />
  <constraint name="1_24" arity="2" scope="v1 v24" reference="1_24" />
  <constraint name="1_9" arity="2" scope="v1 v9" reference="1_9" />
  <constraint name="1_20" arity="2" scope="v1 v20" reference="1_20" />
  <constraint name="1_23" arity="2" scope="v1 v23" reference="1_23" />
  <constraint name="2_6" arity="2" scope="v2 v6" reference="2_6" />
  <constraint name="2_7" arity="2" scope="v2 v7" reference="2_7" />
  <constraint name="2_9" arity="2" scope="v2 v9" reference="2_9" />
  <constraint name="2_12" arity="2" scope="v2 v12" reference="2_12" />
  <constraint name="2_16" arity="2" scope="v2 v16" reference="2_16" />
  <constraint name="2_17" arity="2" scope="v2 v17" reference="2_17" />
  <constraint name="2_19" arity="2" scope="v2 v19" reference="2_19" />
  <constraint name="2_23" arity="2" scope="v2 v23" reference="2_23" />
  <constraint name="2_24" arity="2" scope="v2 v24" reference="2_24" />
  <constraint name="3_16" arity="2" scope="v3 v16" reference="3_16" />
  <constraint name="3_12" arity="2" scope="v3 v12" reference="3_12" />
  <constraint name="3_5" arity="2" scope="v3 v5" reference="3_5" />
  <constraint name="3_6" arity="2" scope="v3 v6" reference="3_6" />
  <constraint name="4_19" arity="2" scope="v4 v19" reference="4_19" />
  <constraint name="4_11" arity="2" scope="v4 v11" reference="4_11" />
  <constraint name="4_7" arity="2" scope="v4 v7" reference="4_7" />
  <constraint name="5_19" arity="2" scope="v5 v19" reference="5_19" />
  <constraint name="5_9" arity="2" scope="v5 v9" reference="5_9" />
  <constraint name="5_18" arity="2" scope="v5 v18" reference="5_18" />
  <constraint name="5_12" arity="2" scope="v5 v12" reference="5_12" />
  <constraint name="6_19" arity="2" scope="v6 v19" reference="6_19" />
  <constraint name="6_12" arity="2" scope="v6 v12" reference="6_12" />
  <constraint name="6_13" arity="2" scope="v6 v13" reference="6_13" />
  <constraint name="7_10" arity="2" scope="v7 v10" reference="7_10" />
  <constraint name="7_11" arity="2" scope="v7 v11" reference="7_11" />
  <constraint name="7_14" arity="2" scope="v7 v14" reference="7_14" />
  <constraint name="7_18" arity="2" scope="v7 v18" reference="7_18" />
  <constraint name="7_19" arity="2" scope="v7 v19" reference="7_19" />
  <constraint name="7_20" arity="2" scope="v7 v20" reference="7_20" />
  <constraint name="8_10" arity="2" scope="v8 v10" reference="8_10" />
  <constraint name="8_11" arity="2" scope="v8 v11" reference="8_11" />
  <constraint name="8_13" arity="2" scope="v8 v13" reference="8_13" />
  <constraint name="8_14" arity="2" scope="v8 v14" reference="8_14" />
  <constraint name="8_21" arity="2" scope="v8 v21" reference="8_21" />
  <constraint name="8_22" arity="2" scope="v8 v22" reference="8_22" />
  <constraint name="9_20" arity="2" scope="v9 v20" reference="9_20" />
  <constraint name="9_14" arity="2" scope="v9 v14" reference="9_14" />
  <constraint name="10_15" arity="2" scope="v10 v15" reference="10_15" />
  <constraint name="10_19" arity="2" scope="v10 v19" reference="10_19" />
  <constraint name="10_21" arity="2" scope="v10 v21" reference="10_21" />
  <constraint name="10_23" arity="2" scope="v10 v23" reference="10_23" />
  <constraint name="11_17" arity="2" scope="v11 v17" reference="11_17" />
  <constraint name="11_21" arity="2" scope="v11 v21" reference="11_21" />
  <constraint name="11_23" arity="2" scope="v11 v23" reference="11_23" />
  <constraint name="12_15" arity="2" scope="v12 v15" reference="12_15" />
  <constraint name="12_19" arity="2" scope="v12 v19" reference="12_19" />
  <constraint name="12_24" arity="2" scope="v12 v24" reference="12_24" />
  <constraint name="13_15" arity="2" scope="v13 v15" reference="13_15" />
  <constraint name="13_18" arity="2" scope="v13 v18" reference="13_18" />
  <constraint name="13_22" arity="2" scope="v13 v22" reference="13_22" />
  <constraint name="13_24" arity="2" scope="v13 v24" reference="13_24" />
  <constraint name="14_18" arity="2" scope="v14 v18" reference="14_18" />
  <constraint name="14_22" arity="2" scope="v14 v22" reference="14_22" />
  <constraint name="14_23" arity="2" scope="v14 v23" reference="14_23" />
  <constraint name="15_17" arity="2" scope="v15 v17" reference="15_17" />
  <constraint name="15_18" arity="2" scope="v15 v18" reference="15_18" />
  <constraint name="15_23" arity="2" scope="v15 v23" reference="15_23" />
  <constraint name="16_17" arity="2" scope="v16 v17" reference="16_17" />
  <constraint name="16_18" arity="2" scope="v16 v18" reference="16_18" />
  <constraint name="16_19" arity="2" scope="v16 v19" reference="16_19" />
  <constraint name="16_22" arity="2" scope="v16 v22" reference="16_22" />
  <constraint name="16_24" arity="2" scope="v16 v24" reference="16_24" />
  <constraint name="17_18" arity="2" scope="v17 v18" reference="17_18" />
  <constraint name="17_19" arity="2" scope="v17 v19" reference="17_19" />
  <constraint name="17_21" arity="2" scope="v17 v21" reference="17_21" />
  <constraint name="17_23" arity="2" scope="v17 v23" reference="17_23" />
  <constraint name="18_19" arity="2" scope="v18 v19" reference="18_19" />
  <constraint name="18_24" arity="2" scope="v18 v24" reference="18_24" />
  <constraint name="19_20" arity="2" scope="v19 v20" reference="19_20" />
  <constraint name="19_23" arity="2" scope="v19 v23" reference="19_23" />
  <constraint name="20_24" arity="2" scope="v20 v24" reference="20_24" />
  <constraint name="21_23" arity="2" scope="v21 v23" reference="21_23" />
</constraints>
</instance >